100 8
816 368
427 892
99 189
99 397
162 287
308 736
690 189
391 870
530 464
179 34
432 355
712 229
415 774
553 727
162 85
355 490
462 665
54 355
942 512
244 622
225 35
821 711
466 902
687 744
799 317
913 350
681 495
401 488
485 821
190 57
774 233
478 507
185 512
192 247
256 793
329 928
488 960
682 475
688 849
209 115
796 727
690 694
335 590
260 92
421 458
812 101
745 384
632 345
489 855
205 689
501 733
251 737
242 806
268 580
514 599
821 738
144 708
464 520
727 262
699 339
369 935
249 724
791 797
218 396
554 466
747 428
557 566
227 560
380 507
768 675
186 188
696 267
132 621
733 135
748 240
672 439
407 794
549 682
839 391
935 511
490 753
418 733
202 268
351 447
769 394
435 865
293 606
463 962
507 857
788 286
459 670
193 693
213 427
423 546
240 81
277 601
868 437
459 714
406 484
424 448
